NPROCS=0
This instance is clustered!
Gurobi Optimizer version 9.0.0 build v9.0.0rc2 (linux64)
Optimize a model with 18 rows, 82 columns and 162 nonzeros
Model fingerprint: 0xa0af8d79
Variable types: 1 continuous, 81 integer (81 binary)
Coefficient statistics:
  Matrix range     [1e+00, 1e+00]
  Objective range  [1e+00, 4e+01]
  Bounds range     [1e+00, 1e+00]
  RHS range        [1e+00, 1e+00]
 done with super cut 0
Presolve removed 2 rows and 24 columns
Presolve time: 0.00s
Presolved: 16 rows, 58 columns, 114 nonzeros
Variable types: 1 continuous, 57 integer (57 binary)

Root relaxation: objective 4.033491e+01, 11 iterations, 0.00 seconds
 done with super cut 1

    Nodes    |    Current Node    |     Objective Bounds      |     Work
 Expl Unexpl |  Obj  Depth IntInf | Incumbent    BestBd   Gap | It/Node Time

     0     0   61.25386    0   10          -   61.25386      -     -    0s
 done with super cut 2
H    0     0                      85.7484314   61.25386  28.6%     -    0s
     0     0   64.82867    0   14   85.74843   64.82867  24.4%     -    0s
     0     0   64.82867    0   14   85.74843   64.82867  24.4%     -    0s
 done with super cut 3
 done with super cut 4
 done with super cut 5
     0     2   68.58830    0   16   85.74843   68.58830  20.0%     -    0s
 done with super cut 6
 done with super cut 7
 done with super cut 8
 done with super cut 9
 done with super cut 10

Cutting planes:
  Gomory: 1
  Lazy constraints: 27

Explored 84 nodes (311 simplex iterations) in 0.14 seconds
Thread count was 12 (of 12 available processors)

Solution count 1: 85.7484 

Optimal solution found (tolerance 1.00e-04)
Best objective 8.574843139470e+01, best bound 8.574843139470e+01, gap 0.0000%

User-callback calls 275, time in user-callback 0.10 sec
/projects/academic/josewalt/caigao/RRARP_BD/BendersDecomp/ret/model_outs/n_7_h_7_algo_4.out
 =====>>>>> Solution is written to file in <../ret/model_outs> !!!
===>> All Done!
